N = 12;
H = 5;
T = 2;

avail = array3d(1..N, 1..H, 1..T, [4, 2, 9, 9, 7, 0, 9, 1, 0, 4, 8, 3, 8, 7, 6, 7, 9, 1, 7, 9, 0, 9, 6, 1, 0, 10, 0, 9, 9, 1, 4, 10, 7, 5, 5, 7, 10, 9, 6, 1, 10, 5, 4, 6, 2, 3, 4, 4, 5, 5, 0, 1, 9, 8, 7, 8, 0, 0, 3, 8, 0, 0, 2, 0, 10, 8, 0, 10, 3, 10, 9, 7, 5, 8, 7, 9, 5, 7, 2, 0, 2, 9, 5, 2, 1, 10, 0, 1, 7, 5, 9, 0, 10, 9, 8, 10, 1, 6, 3, 10, 2, 3, 10, 9, 7, 10, 3, 10, 0, 8, 9, 4, 4, 6, 1, 4, 6, 9, 0, 9]);

r = array2d(1..H, 1..T, [0, 0, 0, 3, 3, 2, 5, 2, 4, 0]);
